(declare-const a Real)
(declare-const b Real)
(declare-const c Real)
(assert (<= (+ (pow a 2) (pow b 2) (pow c 2) (pow (+ a b c) 2)) 4))
(assert (>= a 0))
(assert (>= b 0))
(assert (>= c 0))
(assert (not (<= (+ (* (pow (+ 1 (pow (+ b c) 4)) -1) (pow (+ (* 3 (pow (+ a b) 2) (pow (+ a c) 2) (pow (+ b c) 4)) (* 3 (pow (+ a c) 2) (pow (+ b c) 2) (+ a b))) 2) (+ (* (/ 1 2) a) (* (/ 1 2) b))) (* -4 (pow (+ a c) 2) (pow (+ b c) 2) (+ 1 (* a b)) (+ (* (pow (+ a b) 2) (pow (+ a c) 2) (+ 1 (* b c))) (* (pow (+ a b) 2) (pow (+ b c) 2) (+ 1 (* a c)))))) 0)))
(check-sat)
(get-model)
(exit)